c graph colorability of graph:
c random_regular_graph(5, 98).
c
c Generated with `cnfgen`
c (C) 2012-2016 Massimo Lauria <lauria.massimo@gmail.com>
c https://massimolauria.github.io/cnfgen
c
p cnf 294 1127
1 2 3 0
-1 -2 0
-1 -3 0
-2 -3 0
4 5 6 0
-4 -5 0
-4 -6 0
-5 -6 0
7 8 9 0
-7 -8 0
-7 -9 0
-8 -9 0
10 11 12 0
-10 -11 0
-10 -12 0
-11 -12 0
13 14 15 0
-13 -14 0
-13 -15 0
-14 -15 0
16 17 18 0
-16 -17 0
-16 -18 0
-17 -18 0
19 20 21 0
-19 -20 0
-19 -21 0
-20 -21 0
22 23 24 0
-22 -23 0
-22 -24 0
-23 -24 0
25 26 27 0
-25 -26 0
-25 -27 0
-26 -27 0
28 29 30 0
-28 -29 0
-28 -30 0
-29 -30 0
31 32 33 0
-31 -32 0
-31 -33 0
-32 -33 0
34 35 36 0
-34 -35 0
-34 -36 0
-35 -36 0
37 38 39 0
-37 -38 0
-37 -39 0
-38 -39 0
40 41 42 0
-40 -41 0
-40 -42 0
-41 -42 0
43 44 45 0
-43 -44 0
-43 -45 0
-44 -45 0
46 47 48 0
-46 -47 0
-46 -48 0
-47 -48 0
49 50 51 0
-49 -50 0
-49 -51 0
-50 -51 0
52 53 54 0
-52 -53 0
-52 -54 0
-53 -54 0
55 56 57 0
-55 -56 0
-55 -57 0
-56 -57 0
58 59 60 0
-58 -59 0
-58 -60 0
-59 -60 0
61 62 63 0
-61 -62 0
-61 -63 0
-62 -63 0
64 65 66 0
-64 -65 0
-64 -66 0
-65 -66 0
67 68 69 0
-67 -68 0
-67 -69 0
-68 -69 0
70 71 72 0
-70 -71 0
-70 -72 0
-71 -72 0
73 74 75 0
-73 -74 0
-73 -75 0
-74 -75 0
76 77 78 0
-76 -77 0
-76 -78 0
-77 -78 0
79 80 81 0
-79 -80 0
-79 -81 0
-80 -81 0
82 83 84 0
-82 -83 0
-82 -84 0
-83 -84 0
85 86 87 0
-85 -86 0
-85 -87 0
-86 -87 0
88 89 90 0
-88 -89 0
-88 -90 0
-89 -90 0
91 92 93 0
-91 -92 0
-91 -93 0
-92 -93 0
94 95 96 0
-94 -95 0
-94 -96 0
-95 -96 0
97 98 99 0
-97 -98 0
-97 -99 0
-98 -99 0
100 101 102 0
-100 -101 0
-100 -102 0
-101 -102 0
103 104 105 0
-103 -104 0
-103 -105 0
-104 -105 0
106 107 108 0
-106 -107 0
-106 -108 0
-107 -108 0
109 110 111 0
-109 -110 0
-109 -111 0
-110 -111 0
112 113 114 0
-112 -113 0
-112 -114 0
-113 -114 0
115 116 117 0
-115 -116 0
-115 -117 0
-116 -117 0
118 119 120 0
-118 -119 0
-118 -120 0
-119 -120 0
121 122 123 0
-121 -122 0
-121 -123 0
-122 -123 0
124 125 126 0
-124 -125 0
-124 -126 0
-125 -126 0
127 128 129 0
-127 -128 0
-127 -129 0
-128 -129 0
130 131 132 0
-130 -131 0
-130 -132 0
-131 -132 0
133 134 135 0
-133 -134 0
-133 -135 0
-134 -135 0
136 137 138 0
-136 -137 0
-136 -138 0
-137 -138 0
139 140 141 0
-139 -140 0
-139 -141 0
-140 -141 0
142 143 144 0
-142 -143 0
-142 -144 0
-143 -144 0
145 146 147 0
-145 -146 0
-145 -147 0
-146 -147 0
148 149 150 0
-148 -149 0
-148 -150 0
-149 -150 0
151 152 153 0
-151 -152 0
-151 -153 0
-152 -153 0
154 155 156 0
-154 -155 0
-154 -156 0
-155 -156 0
157 158 159 0
-157 -158 0
-157 -159 0
-158 -159 0
160 161 162 0
-160 -161 0
-160 -162 0
-161 -162 0
163 164 165 0
-163 -164 0
-163 -165 0
-164 -165 0
166 167 168 0
-166 -167 0
-166 -168 0
-167 -168 0
169 170 171 0
-169 -170 0
-169 -171 0
-170 -171 0
172 173 174 0
-172 -173 0
-172 -174 0
-173 -174 0
175 176 177 0
-175 -176 0
-175 -177 0
-176 -177 0
178 179 180 0
-178 -179 0
-178 -180 0
-179 -180 0
181 182 183 0
-181 -182 0
-181 -183 0
-182 -183 0
184 185 186 0
-184 -185 0
-184 -186 0
-185 -186 0
187 188 189 0
-187 -188 0
-187 -189 0
-188 -189 0
190 191 192 0
-190 -191 0
-190 -192 0
-191 -192 0
193 194 195 0
-193 -194 0
-193 -195 0
-194 -195 0
196 197 198 0
-196 -197 0
-196 -198 0
-197 -198 0
199 200 201 0
-199 -200 0
-199 -201 0
-200 -201 0
202 203 204 0
-202 -203 0
-202 -204 0
-203 -204 0
205 206 207 0
-205 -206 0
-205 -207 0
-206 -207 0
208 209 210 0
-208 -209 0
-208 -210 0
-209 -210 0
211 212 213 0
-211 -212 0
-211 -213 0
-212 -213 0
214 215 216 0
-214 -215 0
-214 -216 0
-215 -216 0
217 218 219 0
-217 -218 0
-217 -219 0
-218 -219 0
220 221 222 0
-220 -221 0
-220 -222 0
-221 -222 0
223 224 225 0
-223 -224 0
-223 -225 0
-224 -225 0
226 227 228 0
-226 -227 0
-226 -228 0
-227 -228 0
229 230 231 0
-229 -230 0
-229 -231 0
-230 -231 0
232 233 234 0
-232 -233 0
-232 -234 0
-233 -234 0
235 236 237 0
-235 -236 0
-235 -237 0
-236 -237 0
238 239 240 0
-238 -239 0
-238 -240 0
-239 -240 0
241 242 243 0
-241 -242 0
-241 -243 0
-242 -243 0
244 245 246 0
-244 -245 0
-244 -246 0
-245 -246 0
247 248 249 0
-247 -248 0
-247 -249 0
-248 -249 0
250 251 252 0
-250 -251 0
-250 -252 0
-251 -252 0
253 254 255 0
-253 -254 0
-253 -255 0
-254 -255 0
256 257 258 0
-256 -257 0
-256 -258 0
-257 -258 0
259 260 261 0
-259 -260 0
-259 -261 0
-260 -261 0
262 263 264 0
-262 -263 0
-262 -264 0
-263 -264 0
265 266 267 0
-265 -266 0
-265 -267 0
-266 -267 0
268 269 270 0
-268 -269 0
-268 -270 0
-269 -270 0
271 272 273 0
-271 -272 0
-271 -273 0
-272 -273 0
274 275 276 0
-274 -275 0
-274 -276 0
-275 -276 0
277 278 279 0
-277 -278 0
-277 -279 0
-278 -279 0
280 281 282 0
-280 -281 0
-280 -282 0
-281 -282 0
283 284 285 0
-283 -284 0
-283 -285 0
-284 -285 0
286 287 288 0
-286 -287 0
-286 -288 0
-287 -288 0
289 290 291 0
-289 -290 0
-289 -291 0
-290 -291 0
292 293 294 0
-292 -293 0
-292 -294 0
-293 -294 0
-1 -52 0
-2 -53 0
-3 -54 0
-1 -67 0
-2 -68 0
-3 -69 0
-1 -91 0
-2 -92 0
-3 -93 0
-1 -100 0
-2 -101 0
-3 -102 0
-1 -124 0
-2 -125 0
-3 -126 0
-4 -61 0
-5 -62 0
-6 -63 0
-4 -112 0
-5 -113 0
-6 -114 0
-4 -130 0
-5 -131 0
-6 -132 0
-4 -163 0
-5 -164 0
-6 -165 0
-4 -256 0
-5 -257 0
-6 -258 0
-7 -70 0
-8 -71 0
-9 -72 0
-7 -94 0
-8 -95 0
-9 -96 0
-7 -139 0
-8 -140 0
-9 -141 0
-7 -169 0
-8 -170 0
-9 -171 0
-7 -223 0
-8 -224 0
-9 -225 0
-10 -19 0
-11 -20 0
-12 -21 0
-10 -34 0
-11 -35 0
-12 -36 0
-10 -58 0
-11 -59 0
-12 -60 0
-10 -118 0
-11 -119 0
-12 -120 0
-10 -190 0
-11 -191 0
-12 -192 0
-13 -25 0
-14 -26 0
-15 -27 0
-13 -157 0
-14 -158 0
-15 -159 0
-13 -181 0
-14 -182 0
-15 -183 0
-13 -250 0
-14 -251 0
-15 -252 0
-13 -289 0
-14 -290 0
-15 -291 0
-16 -103 0
-17 -104 0
-18 -105 0
-16 -199 0
-17 -200 0
-18 -201 0
-16 -208 0
-17 -209 0
-18 -210 0
-16 -223 0
-17 -224 0
-18 -225 0
-16 -280 0
-17 -281 0
-18 -282 0
-19 -25 0
-20 -26 0
-21 -27 0
-19 -43 0
-20 -44 0
-21 -45 0
-19 -109 0
-20 -110 0
-21 -111 0
-19 -148 0
-20 -149 0
-21 -150 0
-22 -28 0
-23 -29 0
-24 -30 0
-22 -64 0
-23 -65 0
-24 -66 0
-22 -106 0
-23 -107 0
-24 -108 0
-22 -133 0
-23 -134 0
-24 -135 0
-22 -196 0
-23 -197 0
-24 -198 0
-25 -211 0
-26 -212 0
-27 -213 0
-25 -244 0
-26 -245 0
-27 -246 0
-25 -265 0
-26 -266 0
-27 -267 0
-28 -46 0
-29 -47 0
-30 -48 0
-28 -106 0
-29 -107 0
-30 -108 0
-28 -112 0
-29 -113 0
-30 -114 0
-28 -283 0
-29 -284 0
-30 -285 0
-31 -88 0
-32 -89 0
-33 -90 0
-31 -136 0
-32 -137 0
-33 -138 0
-31 -226 0
-32 -227 0
-33 -228 0
-31 -232 0
-32 -233 0
-33 -234 0
-31 -286 0
-32 -287 0
-33 -288 0
-34 -40 0
-35 -41 0
-36 -42 0
-34 -46 0
-35 -47 0
-36 -48 0
-34 -73 0
-35 -74 0
-36 -75 0
-34 -163 0
-35 -164 0
-36 -165 0
-37 -91 0
-38 -92 0
-39 -93 0
-37 -97 0
-38 -98 0
-39 -99 0
-37 -199 0
-38 -200 0
-39 -201 0
-37 -232 0
-38 -233 0
-39 -234 0
-37 -268 0
-38 -269 0
-39 -270 0
-40 -118 0
-41 -119 0
-42 -120 0
-40 -121 0
-41 -122 0
-42 -123 0
-40 -145 0
-41 -146 0
-42 -147 0
-40 -205 0
-41 -206 0
-42 -207 0
-43 -133 0
-44 -134 0
-45 -135 0
-43 -151 0
-44 -152 0
-45 -153 0
-43 -163 0
-44 -164 0
-45 -165 0
-43 -256 0
-44 -257 0
-45 -258 0
-46 -142 0
-47 -143 0
-48 -144 0
-46 -217 0
-47 -218 0
-48 -219 0
-46 -247 0
-47 -248 0
-48 -249 0
-49 -61 0
-50 -62 0
-51 -63 0
-49 -94 0
-50 -95 0
-51 -96 0
-49 -115 0
-50 -116 0
-51 -117 0
-49 -139 0
-50 -140 0
-51 -141 0
-49 -274 0
-50 -275 0
-51 -276 0
-52 -82 0
-53 -83 0
-54 -84 0
-52 -238 0
-53 -239 0
-54 -240 0
-52 -265 0
-53 -266 0
-54 -267 0
-52 -286 0
-53 -287 0
-54 -288 0
-55 -70 0
-56 -71 0
-57 -72 0
-55 -85 0
-56 -86 0
-57 -87 0
-55 -160 0
-56 -161 0
-57 -162 0
-55 -226 0
-56 -227 0
-57 -228 0
-55 -271 0
-56 -272 0
-57 -273 0
-58 -76 0
-59 -77 0
-60 -78 0
-58 -148 0
-59 -149 0
-60 -150 0
-58 -208 0
-59 -209 0
-60 -210 0
-58 -262 0
-59 -263 0
-60 -264 0
-61 -133 0
-62 -134 0
-63 -135 0
-61 -190 0
-62 -191 0
-63 -192 0
-61 -247 0
-62 -248 0
-63 -249 0
-64 -172 0
-65 -173 0
-66 -174 0
-64 -175 0
-65 -176 0
-66 -177 0
-64 -271 0
-65 -272 0
-66 -273 0
-64 -286 0
-65 -287 0
-66 -288 0
-67 -94 0
-68 -95 0
-69 -96 0
-67 -100 0
-68 -101 0
-69 -102 0
-67 -145 0
-68 -146 0
-69 -147 0
-67 -169 0
-68 -170 0
-69 -171 0
-70 -76 0
-71 -77 0
-72 -78 0
-70 -103 0
-71 -104 0
-72 -105 0
-70 -268 0
-71 -269 0
-72 -270 0
-73 -160 0
-74 -161 0
-75 -162 0
-73 -184 0
-74 -185 0
-75 -186 0
-73 -229 0
-74 -230 0
-75 -231 0
-73 -271 0
-74 -272 0
-75 -273 0
-76 -160 0
-77 -161 0
-78 -162 0
-76 -169 0
-77 -170 0
-78 -171 0
-76 -172 0
-77 -173 0
-78 -174 0
-79 -145 0
-80 -146 0
-81 -147 0
-79 -190 0
-80 -191 0
-81 -192 0
-79 -208 0
-80 -209 0
-81 -210 0
-79 -211 0
-80 -212 0
-81 -213 0
-79 -241 0
-80 -242 0
-81 -243 0
-82 -127 0
-83 -128 0
-84 -129 0
-82 -154 0
-83 -155 0
-84 -156 0
-82 -202 0
-83 -203 0
-84 -204 0
-82 -229 0
-83 -230 0
-84 -231 0
-85 -118 0
-86 -119 0
-87 -120 0
-85 -220 0
-86 -221 0
-87 -222 0
-85 -226 0
-86 -227 0
-87 -228 0
-85 -277 0
-86 -278 0
-87 -279 0
-88 -157 0
-89 -158 0
-90 -159 0
-88 -166 0
-89 -167 0
-90 -168 0
-88 -187 0
-89 -188 0
-90 -189 0
-88 -217 0
-89 -218 0
-90 -219 0
-91 -178 0
-92 -179 0
-93 -180 0
-91 -181 0
-92 -182 0
-93 -183 0
-91 -238 0
-92 -239 0
-93 -240 0
-94 -154 0
-95 -155 0
-96 -156 0
-94 -217 0
-95 -218 0
-96 -219 0
-97 -235 0
-98 -236 0
-99 -237 0
-97 -262 0
-98 -263 0
-99 -264 0
-97 -280 0
-98 -281 0
-99 -282 0
-97 -292 0
-98 -293 0
-99 -294 0
-100 -160 0
-101 -161 0
-102 -162 0
-100 -229 0
-101 -230 0
-102 -231 0
-100 -265 0
-101 -266 0
-102 -267 0
-103 -193 0
-104 -194 0
-105 -195 0
-103 -229 0
-104 -230 0
-105 -231 0
-103 -292 0
-104 -293 0
-105 -294 0
-106 -253 0
-107 -254 0
-108 -255 0
-106 -274 0
-107 -275 0
-108 -276 0
-106 -289 0
-107 -290 0
-108 -291 0
-109 -205 0
-110 -206 0
-111 -207 0
-109 -214 0
-110 -215 0
-111 -216 0
-109 -253 0
-110 -254 0
-111 -255 0
-109 -286 0
-110 -287 0
-111 -288 0
-112 -166 0
-113 -167 0
-114 -168 0
-112 -175 0
-113 -176 0
-114 -177 0
-112 -259 0
-113 -260 0
-114 -261 0
-115 -124 0
-116 -125 0
-117 -126 0
-115 -142 0
-116 -143 0
-117 -144 0
-115 -223 0
-116 -224 0
-117 -225 0
-115 -259 0
-116 -260 0
-117 -261 0
-118 -136 0
-119 -137 0
-120 -138 0
-118 -259 0
-119 -260 0
-120 -261 0
-121 -127 0
-122 -128 0
-123 -129 0
-121 -145 0
-122 -146 0
-123 -147 0
-121 -202 0
-122 -203 0
-123 -204 0
-121 -286 0
-122 -287 0
-123 -288 0
-124 -130 0
-125 -131 0
-126 -132 0
-124 -259 0
-125 -260 0
-126 -261 0
-124 -277 0
-125 -278 0
-126 -279 0
-127 -193 0
-128 -194 0
-129 -195 0
-127 -238 0
-128 -239 0
-129 -240 0
-127 -289 0
-128 -290 0
-129 -291 0
-130 -160 0
-131 -161 0
-132 -162 0
-130 -187 0
-131 -188 0
-132 -189 0
-130 -256 0
-131 -257 0
-132 -258 0
-133 -178 0
-134 -179 0
-135 -180 0
-133 -244 0
-134 -245 0
-135 -246 0
-136 -190 0
-137 -191 0
-138 -192 0
-136 -220 0
-137 -221 0
-138 -222 0
-136 -235 0
-137 -236 0
-138 -237 0
-139 -187 0
-140 -188 0
-141 -189 0
-139 -193 0
-140 -194 0
-141 -195 0
-139 -205 0
-140 -206 0
-141 -207 0
-142 -175 0
-143 -176 0
-144 -177 0
-142 -265 0
-143 -266 0
-144 -267 0
-142 -277 0
-143 -278 0
-144 -279 0
-145 -223 0
-146 -224 0
-147 -225 0
-148 -172 0
-149 -173 0
-150 -174 0
-148 -241 0
-149 -242 0
-150 -243 0
-148 -256 0
-149 -257 0
-150 -258 0
-151 -184 0
-152 -185 0
-153 -186 0
-151 -196 0
-152 -197 0
-153 -198 0
-151 -226 0
-152 -227 0
-153 -228 0
-151 -238 0
-152 -239 0
-153 -240 0
-154 -178 0
-155 -179 0
-156 -180 0
-154 -193 0
-155 -194 0
-156 -195 0
-154 -268 0
-155 -269 0
-156 -270 0
-157 -196 0
-158 -197 0
-159 -198 0
-157 -202 0
-158 -203 0
-159 -204 0
-157 -274 0
-158 -275 0
-159 -276 0
-163 -211 0
-164 -212 0
-165 -213 0
-163 -292 0
-164 -293 0
-165 -294 0
-166 -226 0
-167 -227 0
-168 -228 0
-166 -271 0
-167 -272 0
-168 -273 0
-166 -274 0
-167 -275 0
-168 -276 0
-169 -187 0
-170 -188 0
-171 -189 0
-169 -205 0
-170 -206 0
-171 -207 0
-172 -220 0
-173 -221 0
-174 -222 0
-172 -262 0
-173 -263 0
-174 -264 0
-175 -193 0
-176 -194 0
-177 -195 0
-175 -274 0
-176 -275 0
-177 -276 0
-178 -241 0
-179 -242 0
-180 -243 0
-178 -256 0
-179 -257 0
-180 -258 0
-181 -199 0
-182 -200 0
-183 -201 0
-181 -214 0
-182 -215 0
-183 -216 0
-181 -241 0
-182 -242 0
-183 -243 0
-184 -235 0
-185 -236 0
-186 -237 0
-184 -253 0
-185 -254 0
-186 -255 0
-184 -271 0
-185 -272 0
-186 -273 0
-187 -202 0
-188 -203 0
-189 -204 0
-190 -277 0
-191 -278 0
-192 -279 0
-196 -244 0
-197 -245 0
-198 -246 0
-196 -250 0
-197 -251 0
-198 -252 0
-199 -202 0
-200 -203 0
-201 -204 0
-199 -220 0
-200 -221 0
-201 -222 0
-205 -289 0
-206 -290 0
-207 -291 0
-208 -232 0
-209 -233 0
-210 -234 0
-208 -280 0
-209 -281 0
-210 -282 0
-211 -235 0
-212 -236 0
-213 -237 0
-211 -277 0
-212 -278 0
-213 -279 0
-214 -262 0
-215 -263 0
-216 -264 0
-214 -280 0
-215 -281 0
-216 -282 0
-214 -283 0
-215 -284 0
-216 -285 0
-217 -244 0
-218 -245 0
-219 -246 0
-217 -268 0
-218 -269 0
-219 -270 0
-220 -253 0
-221 -254 0
-222 -255 0
-223 -283 0
-224 -284 0
-225 -285 0
-229 -292 0
-230 -293 0
-231 -294 0
-232 -265 0
-233 -266 0
-234 -267 0
-232 -292 0
-233 -293 0
-234 -294 0
-235 -283 0
-236 -284 0
-237 -285 0
-238 -247 0
-239 -248 0
-240 -249 0
-241 -289 0
-242 -290 0
-243 -291 0
-244 -250 0
-245 -251 0
-246 -252 0
-247 -250 0
-248 -251 0
-249 -252 0
-247 -262 0
-248 -263 0
-249 -264 0
-250 -268 0
-251 -269 0
-252 -270 0
-253 -280 0
-254 -281 0
-255 -282 0
-259 -283 0
-260 -284 0
-261 -285 0
